120 5
10 10 10 10 10 

0 0 0 0 0 0 1 2 
0 0 0 0 0 0 3 3 5 8 
3 0 0 1 0 0 2 11 4 
3 0 0 3 0 0 3 12 10 6 
10 0 0 2 0 0 3 11 10 9 
4 0 0 3 0 0 1 7 
10 0 0 2 0 0 1 9 
5 0 0 5 0 0 1 10 
3 0 0 1 0 0 1 13 
9 0 0 5 0 0 1 13 
3 0 0 1 0 0 1 13 
9 0 0 2 0 0 1 13 
0 0 0 0 0 0 2 14 26 
0 0 0 0 0 0 4 15 19 20 24 
9 0 0 0 1 0 2 17 16 
10 0 0 0 2 0 2 23 18 
9 0 0 0 3 0 1 18 
7 0 0 0 2 0 1 21 
7 0 0 0 2 0 1 21 
8 0 0 0 3 0 1 21 
5 0 0 0 2 0 1 22 
1 0 0 0 2 0 1 25 
9 0 0 0 6 0 1 25 
5 0 0 0 2 0 1 25 
0 0 0 0 0 0 3 48 60 72 
0 0 0 0 0 0 2 27 29 
1 0 1 0 0 1 2 33 28 
10 0 1 0 0 2 3 41 37 30 
7 0 3 0 0 2 3 41 37 30 
1 0 3 0 0 2 3 46 44 31 
8 0 3 0 0 2 3 40 34 32 
3 0 3 0 0 2 3 45 43 35 
1 0 2 0 0 3 3 44 43 36 
9 0 1 0 0 3 2 43 38 
2 0 2 0 0 3 1 36 
1 0 2 0 0 4 1 38 
9 0 2 0 0 2 2 44 43 
8 0 2 0 0 4 1 39 
2 0 3 0 0 4 1 42 
7 0 1 0 0 4 1 45 
5 0 1 0 0 1 1 44 
7 0 2 0 0 1 1 47 
5 0 5 0 0 3 1 47 
5 0 5 0 0 1 1 47 
4 0 2 0 0 1 1 47 
9 0 6 0 0 5 1 47 
0 0 0 0 0 0 1 84 
0 0 0 0 0 0 3 49 50 55 
2 0 0 0 1 0 2 54 51 
4 0 0 0 2 0 3 58 57 52 
4 0 0 0 1 0 1 52 
1 0 0 0 2 0 1 53 
3 0 0 0 3 0 1 56 
4 0 0 0 2 0 1 57 
1 0 0 0 4 0 1 56 
9 0 0 0 3 0 1 59 
10 0 0 0 2 0 1 59 
6 0 0 0 5 0 1 59 
0 0 0 0 0 0 1 84 
0 0 0 0 0 0 5 61 64 66 69 70 
8 0 1 0 0 0 2 68 62 
9 0 4 0 0 0 1 63 
10 0 3 0 0 0 1 65 
1 0 3 0 0 0 1 65 
7 0 1 0 0 0 1 67 
5 0 3 0 0 0 1 68 
4 0 2 0 0 0 1 71 
2 0 2 0 0 0 1 71 
5 0 3 0 0 0 1 71 
8 0 3 0 0 0 1 71 
0 0 0 0 0 0 1 84 
0 0 0 0 0 0 2 73 74 
10 0 0 0 0 1 2 77 75 
9 0 0 0 0 2 2 77 76 
4 0 0 0 0 3 2 78 76 
7 0 0 0 0 2 2 82 79 
7 0 0 0 0 7 2 82 78 
1 0 0 0 0 2 2 81 80 
10 0 0 0 0 4 2 81 80 
2 0 0 0 0 1 1 83 
3 0 0 0 0 1 1 83 
3 0 0 0 0 2 1 83 
0 0 0 0 0 0 1 84 
0 0 0 0 0 0 2 85 97 
0 0 0 0 0 0 3 86 88 89 
1 0 1 0 0 0 3 95 90 87 
10 0 3 0 0 0 2 94 91 
6 0 1 0 0 0 2 95 90 
10 0 1 0 0 0 2 94 91 
10 0 4 0 0 0 2 94 93 
5 0 2 0 0 0 1 92 
6 0 5 0 0 0 1 93 
9 0 3 0 0 0 1 96 
10 0 2 0 0 0 1 96 
1 0 3 0 0 0 1 96 
0 0 0 0 0 0 1 109 
0 0 0 0 0 0 5 98 104 105 106 107 
9 0 0 0 1 0 1 99 
6 0 0 0 2 0 1 100 
9 0 0 0 1 0 2 103 101 
4 0 0 0 2 0 1 102 
7 0 0 0 3 0 1 108 
5 0 0 0 4 0 1 108 
1 0 0 0 2 0 1 108 
5 0 0 0 2 0 1 108 
4 0 0 0 3 0 1 108 
2 0 0 0 5 0 1 108 
0 0 0 0 0 0 1 109 
0 0 0 0 0 0 1 110 
10 1 0 0 0 0 2 114 111 
4 4 0 0 0 0 2 113 112 
6 2 0 0 0 0 3 118 116 115 
8 2 0 0 0 0 3 119 118 117 
2 2 0 0 0 0 2 118 115 
5 3 0 0 0 0 1 117 
5 6 0 0 0 0 1 117 
4 1 0 0 0 0 1 120 
10 2 0 0 0 0 1 120 
7 2 0 0 0 0 1 120 
0 0 0 0 0 0 0 
